WARNING: for repeatability, setting FPU to use double precision
============================[ Problem Statistics ]=============================
|                                                                             |
|  Number of variables:           225                                         |
|  Number of clauses:             976                                         |
|  Parse time:                   0.00 s                                       |
|                                                                             |
============================[ Search Statistics ]==============================
| Conflicts |          ORIGINAL         |          LEARNT          | Progress |
|           |    Vars  Clauses Literals |    Limit  Clauses Lit/Cl |          |
===============================================================================
===============================================================================
restarts              : 1
conflicts             : 82             (inf /sec)
decisions             : 297            (0.00 % random) (inf /sec)
propagations          : 2302           (inf /sec)
conflict literals     : 478            (1.44 % deleted)
Memory used           : 6.00 MB
CPU time              : 0 s

SATISFIABLE
